Problem:    prigioniero
Rows:       5
Columns:    4
Non-zeros:  16
Status:     OPTIMAL
Objective:  0 (MINimum)

   No.   Row name   St   Activity     Lower bound   Upper bound    Marginal
------ ------------ -- ------------- ------------- ------------- -------------
     1 Bilanciamento[Nord]
                    NS             0            -0             =         < eps
     2 Bilanciamento[Est]
                    NS             0            -0             =         < eps
     3 Bilanciamento[Sud]
                    B              0            -0             = 
     4 Bilanciamento[Ovest]
                    NS             0            -0             =         < eps
     5 Normalizzazione
                    NS             1             1             =         < eps

   No. Column name  St   Activity     Lower bound   Upper bound    Marginal
------ ------------ -- ------------- ------------- ------------- -------------
     1 P[Nord]      B       0.251323             0               
     2 P[Est]       B       0.224868             0               
     3 P[Sud]       B       0.248677             0               
     4 P[Ovest]     B       0.275132             0               

Karush-Kuhn-Tucker optimality conditions:

KKT.PE: max.abs.err = 2.22e-16 on row 5
        max.rel.err = 7.40e-17 on row 5
        High quality

KKT.PB: max.abs.err = 1.39e-17 on row 3
        max.rel.err = 1.39e-17 on row 3
        High quality

KKT.DE: max.abs.err = 0.00e+00 on column 0
        max.rel.err = 0.00e+00 on column 0
        High quality

KKT.DB: max.abs.err = 0.00e+00 on row 0
        max.rel.err = 0.00e+00 on row 0
        High quality

End of output
